3277.0
[[12. 24. 13.  4.  1. 37.  5. 39. 38. 19. 41. 32. 22.  8. 10. 49. 33. 26.
  43. 31.  2. 34. 47. 17. 40.  9. 46. 44.  7. 14.  6. 48. 21. 45. 16. 29.
  11. 35. 28. 36. 20. 18.  3. 42. 15. 25.  0. 27. 23. 30.]
 [12. 24. 13.  4.  1. 37.  5. 39. 38. 19. 41. 32. 22.  8. 10. 49. 33. 26.
  43. 31.  2. 34. 47. 17. 40.  9. 46. 44.  7. 14.  6. 48. 21. 45. 16. 29.
  11. 35. 28. 36. 20. 18.  3. 42. 15. 25.  0. 27. 23. 30.]
 [12. 24. 13.  4.  1. 37.  5. 39. 38. 19. 41. 32. 22.  8. 10. 49. 33. 26.
  43. 31.  2. 34. 47. 17. 40.  9. 46. 44.  7. 14.  6. 48. 21. 45. 16. 29.
  11. 35. 28. 36. 20. 18.  3. 42. 15. 25.  0. 27. 23. 30.]
 [12. 24. 13.  4.  1. 37.  5. 39. 38. 19. 41. 32. 22.  8. 10. 49. 33. 26.
  43. 31.  2. 34. 47. 17. 40.  9. 46. 44.  7. 14.  6. 48. 21. 45. 16. 29.
  11. 35. 28. 36. 20. 18.  3. 42. 15. 25.  0. 27. 23. 30.]
 [12. 24. 13.  4.  1. 37.  5. 39. 38. 19. 41. 32. 22.  8. 10. 49. 33. 26.
  43. 31.  2. 34. 47. 17. 40.  9. 46. 44.  7. 14.  6. 48. 21. 45. 16. 29.
  11. 35. 28. 36. 20. 18.  3. 42. 15. 25.  0. 27. 23. 30.]
 [12. 24. 13.  4.  1. 37.  5. 39. 38. 19. 41. 32. 22.  8. 10. 49. 33. 26.
  43. 31.  2. 34. 47. 17. 40.  9. 46. 44.  7. 14.  6. 48. 21. 45. 16. 29.
  11. 35. 28. 36. 20. 18.  3. 42. 15. 25.  0. 27. 23. 30.]
 [12. 24. 13.  4.  1. 37.  5. 39. 38. 19. 41. 32. 22.  8. 10. 49. 33. 26.
  43. 31.  2. 34. 47. 17. 40.  9. 46. 44.  7. 14.  6. 48. 21. 45. 16. 29.
  11. 35. 28. 36. 20. 18.  3. 42. 15. 25.  0. 27. 23. 30.]
 [12. 24. 13.  4.  1. 37.  5. 39. 38. 19. 41. 32. 22.  8. 10. 49. 33. 26.
  43. 31.  2. 34. 47. 17. 40.  9. 46. 44.  7. 14.  6. 48. 21. 45. 16. 29.
  11. 35. 28. 36. 20. 18.  3. 42. 15. 25.  0. 27. 23. 30.]
 [12. 24. 13.  4.  1. 37.  5. 39. 38. 19. 41. 32. 22.  8. 10. 49. 33. 26.
  43. 31.  2. 34. 47. 17. 40.  9. 46. 44.  7. 14.  6. 48. 21. 45. 16. 29.
  11. 35. 28. 36. 20. 18.  3. 42. 15. 25.  0. 27. 23. 30.]
 [12. 24. 13.  4.  1. 37.  5. 39. 38. 19. 41. 32. 22.  8. 10. 49. 33. 26.
  43. 31.  2. 34. 47. 17. 40.  9. 46. 44.  7. 14.  6. 48. 21. 45. 16. 29.
  11. 35. 28. 36. 20. 18.  3. 42. 15. 25.  0. 27. 23. 30.]]
